p cnf 28 22
-1 26 0 
-2 -1 -3 -4 27 0 
-5 -6 -7 12 -8 -9 28 0 
-7 12 -8 28 0 
-10 27 0 
-11 -8 27 0 
-12 7 -13 27 0 
-14 27 0 
-15 27 0 
-16 27 0 
-17 27 0 
-18 23 26 0 
-19 27 0 
-20 27 0 
-10 -21 27 0 
-11 -2 27 0 
-22 26 0 
-23 18 28 0 
-1 27 0 
-7 12 -24 28 0 
-12 7 -2 27 0 
-25 28 0 
